peakDumbCharging = 25900; 
Machine = anon_enum(16); 
machineSpeed = [3700,3700,3700,3700,3700,3700,3700,3700,3700,3700,3700,3700,3700,3700,3700,3700]; 
machineLoad = [3700,3700,3700,3700,3700,3700,3700,3700,3700,3700,3700,3700,3700,3700,3700,3700]; 
Car = anon_enum(33); 
demandCar = [3080,9920,11400,3640,15880,2400,4680,5960,6240,4280,10400,10440,6360,13720,12920,14040,2480,2840,13160,1040,3680,35160,920,5520,11600,24000,9200,9520,14840,19040,10960,12680,23160]; 
arrivalCar = [74,69,68,66,65,64,61,61,59,59,58,57,56,56,56,55,51,51,50,49,48,48,46,46,45,44,43,40,40,36,34,31,18]; 
departureCar = [76,73,72,68,70,66,65,65,64,63,66,64,59,63,61,60,54,53,56,51,51,60,47,50,50,52,50,46,57,55,39,37,26]; 
